RT is False
Default write of storage_offers_DA.csv just to have a file (but constraint should be inactive)
Reading model...
...model read.
creating competitive generators file...
...competitive generators recorded.
Loading data...
.. day-ahead data with real-time VRE data read.
Compiling instance...
...instance created.
Creating Offer Mitigation (model will solve as dispatch if TRUE)...
Solving...

Welcome to IBM(R) ILOG(R) CPLEX(R) Interactive Optimizer 12.9.0.0
  with Simplex, Mixed Integer & Barrier Optimizers
5725-A06 5725-A29 5724-Y48 5724-Y49 5724-Y54 5724-Y55 5655-Y21
Copyright IBM Corp. 1988, 2019.  All Rights Reserved.

Type 'help' for a list of available commands.
Type 'help' followed by a command name for more
information on commands.

CPLEX> Logfile 'cplex.log' closed.
Logfile 'C:\Users\llavin\Desktop\test826\logs\tmp5_h50x48.cplex.log' open.
CPLEX> New value for parallel optimization mode: -1
CPLEX> New value for emphasis for MIP optimization: 1
CPLEX> New value for mixed integer optimality gap tolerance: 0.01
CPLEX> New value for integrality tolerance: 1e-12
CPLEX> New value for deterministic time limit in ticks: 75000
CPLEX> Problem 'C:\Users\llavin\Desktop\test826\logs\tmpebqu6ad6.pyomo.lp' read.
Read time = 0.05 sec. (3.05 ticks)
CPLEX> Problem name         : C:\Users\llavin\Desktop\test826\logs\tmpebqu6ad6.pyomo.lp
Objective sense      : Minimize
Variables            :   26085  [Nneg: 1,  Box: 21620,  Free: 4464]
Objective nonzeros   :    2496
Linear constraints   :   27563  [Less: 14006,  Greater: 4416,  Equal: 9141]
  Nonzeros           :   90755
  RHS nonzeros       :   12271

Variables            : Min LB: -5000.000        Max UB: 1000000.       
Objective nonzeros   : Min   : 15.73158         Max   : 124.0997       
Linear constraints   :
  Nonzeros           : Min   : 0.8500000        Max   : 3000.000       
  RHS nonzeros       : Min   : 0.07500000       Max   : 5000.000       
CPLEX> CPXPARAM_Parallel                                -1
CPXPARAM_Emphasis_MIP                            1
CPXPARAM_DetTimeLimit                            75000
CPXPARAM_MIP_Tolerances_MIPGap                   0.01
CPXPARAM_MIP_Tolerances_Integrality              9.9999999999999998e-13
Parallel mode: opportunistic, using up to 32 threads for concurrent optimization.
Tried aggregator 1 time.
LP Presolve eliminated 21367 rows and 15455 columns.
Aggregator did 767 substitutions.
Reduced LP has 5429 rows, 9863 columns, and 32590 nonzeros.
Presolve time = 0.06 sec. (30.78 ticks)
Symmetry aggregator did 5659 additional substitutions.
Initializing dual steep norms . . .

Iteration log . . .
Iteration:     1   Dual objective     =             0.000000
Perturbation started.
Iteration:   101   Dual objective     =             0.000000
Iteration:   346   Dual objective     =            51.262459
Iteration:   568   Dual objective     =            62.267895
Iteration:   779   Dual objective     =            62.450897
Iteration:   960   Dual objective     =        196426.354715
Iteration:  1138   Dual objective     =        207762.600576
Removing perturbation.

Dual crossover.
  Dual:  Fixing 1 variable.
        0 DMoves:  Infeasibility  1.42108547e-14  Objective  2.07744618e+05
  Dual:  Pushed 0, exchanged 1.
  Primal:  Fixing 4 variables.
        3 PMoves:  Infeasibility  9.05387765e-10  Objective  2.07744618e+05
        0 PMoves:  Infeasibility  9.05387765e-10  Objective  2.07744618e+05
  Primal:  Pushed 4, exchanged 0.

Dual simplex solved model.


Dual simplex - Optimal:  Objective =  2.0774461800e+05
Solution time =    0.17 sec.  Iterations = 1353 (0)
Deterministic time = 78.72 ticks  (460.35 ticks/sec)

CPLEX> Solution written to file 'C:\Users\llavin\Desktop\test826\logs\tmp0ytnzfdt.cplex.sol'.
CPLEX> Exporting results... 
...storage offer mitigation file created
Converting model to MPEC...
...converted
NOTE: initial MIP solve with only storage competitive to get feasible solution
Solving...

Welcome to IBM(R) ILOG(R) CPLEX(R) Interactive Optimizer 12.9.0.0
  with Simplex, Mixed Integer & Barrier Optimizers
5725-A06 5725-A29 5724-Y48 5724-Y49 5724-Y54 5724-Y55 5655-Y21
Copyright IBM Corp. 1988, 2019.  All Rights Reserved.

Type 'help' for a list of available commands.
Type 'help' followed by a command name for more
information on commands.

CPLEX> Logfile 'cplex.log' closed.
Logfile 'C:\Users\llavin\Desktop\test826\logs\tmpzzgt3lu7.cplex.log' open.
CPLEX> New value for parallel optimization mode: -1
CPLEX> New value for emphasis for MIP optimization: 1
CPLEX> New value for mixed integer optimality gap tolerance: 0.01
CPLEX> New value for integrality tolerance: 1e-12
CPLEX> New value for deterministic time limit in ticks: 75000
CPLEX> Problem 'C:\Users\llavin\Desktop\test826\logs\tmphxkdwr5k.pyomo.lp' read.
Read time = 0.22 sec. (13.88 ticks)
CPLEX> Problem name         : C:\Users\llavin\Desktop\test826\logs\tmphxkdwr5k.pyomo.lp
Objective sense      : Maximize
Variables            :   53809  [Nneg: 1,  Box: 22004,  Free: 4464,
                                 Binary: 27340]
Objective nonzeros   :    8980
Linear constraints   :  123253  [Less: 41346,  Greater: 59096,  Equal: 22811]
  Nonzeros           :  293289
  RHS nonzeros       :   67491

Variables            : Min LB: -5000.000        Max UB: 1000000.       
Objective nonzeros   : Min   : 0.07500000       Max   : 822.4500       
Linear constraints   :
  Nonzeros           : Min   : 0.07500000       Max   : 1000000.       
  RHS nonzeros       : Min   : 0.07500000       Max   : 1000000.       
CPLEX> CPXPARAM_Parallel                                -1
CPXPARAM_Emphasis_MIP                            1
CPXPARAM_DetTimeLimit                            75000
CPXPARAM_MIP_Tolerances_MIPGap                   0.01
CPXPARAM_MIP_Tolerances_Integrality              9.9999999999999998e-13
Tried aggregator 4 times.
MIP Presolve eliminated 88724 rows and 18980 columns.
MIP Presolve added 3395 rows and 0 columns.
MIP Presolve modified 24918 coefficients.
Aggregator did 12998 substitutions.
Reduced MIP has 24926 rows, 21275 columns, and 71132 nonzeros.
Reduced MIP has 8399 binaries, 0 generals, 0 SOSs, and 0 indicators.
Presolve time = 0.33 sec. (193.69 ticks)
Probing fixed 370 vars, tightened 4265 bounds.
Probing time = 0.06 sec. (18.94 ticks)
Tried aggregator 2 times.
MIP Presolve eliminated 834 rows and 742 columns.
MIP Presolve modified 3038 coefficients.
Aggregator did 36 substitutions.
Reduced MIP has 24056 rows, 20497 columns, and 68614 nonzeros.
Reduced MIP has 8028 binaries, 0 generals, 0 SOSs, and 0 indicators.
Presolve time = 0.11 sec. (87.73 ticks)
Probing fixed 0 vars, tightened 318 bounds.
Probing time = 0.14 sec. (22.82 ticks)
Clique table members: 44699.
MIP emphasis: integer feasibility.
MIP search method: dynamic search.
Parallel mode: opportunistic, using up to 32 threads.
Root relaxation solution time = 0.41 sec. (659.82 ticks)

        Nodes                                         Cuts/
   Node  Left     Objective  IInf  Best Integer    Best Bound    ItCnt     Gap

      0     0     7965.0732   169                   7965.0732     5475         
      0     0     7965.0732     5                    Cuts: 21     5480         
      0     0     7965.0732     4                     Cuts: 3     5481         
      0     0     7965.0732     6                   Covers: 1     5483         
      0    17     7674.8263     3                     Cuts: 7     5545         
Elapsed time = 4.05 sec. (1807.93 ticks, tree = 0.02 MB, solutions = 0)
*   217    46      integral     0     7945.7799     7961.4153     5900    0.20%
    330    64     7767.8885     3     7945.7799     7961.4153     6045    0.20%

Clique cuts applied:  1
Cover cuts applied:  4
Implied bound cuts applied:  9
Flow cuts applied:  6
Mixed integer rounding cuts applied:  4
Gomory fractional cuts applied:  2

Root node processing (before b&c):
  Real time             =    2.45 sec. (1773.38 ticks)
Parallel b&c, 32 threads:
  Real time             =    2.30 sec. (332.26 ticks)
  Sync time (average)   =    0.61 sec.
  Wait time (average)   =    0.00 sec.
                          ------------
Total (root+branch&cut) =    4.75 sec. (2105.63 ticks)

Solution pool: 4 solutions saved.

MIP - Integer optimal, tolerance (0.01/1e-06):  Objective =  7.9457798625e+03
Current MIP best bound =  7.9614152820e+03 (gap = 15.6354, 0.20%)
Solution time =    4.77 sec.  Iterations = 8487  Nodes = 333 (3)
Deterministic time = 2105.79 ticks  (441.84 ticks/sec)

CPLEX> Incumbent solution written to file 'C:\Users\llavin\Desktop\test826\logs\tmpm7e6yowv.cplex.sol'.
CPLEX> NOTE: no warmstart specified for MIP iteration, default behavior is true
NOTE: resolving with all competitive generators using storage-only solution to warmstart
Solving...

Welcome to IBM(R) ILOG(R) CPLEX(R) Interactive Optimizer 12.9.0.0
  with Simplex, Mixed Integer & Barrier Optimizers
5725-A06 5725-A29 5724-Y48 5724-Y49 5724-Y54 5724-Y55 5655-Y21
Copyright IBM Corp. 1988, 2019.  All Rights Reserved.

Type 'help' for a list of available commands.
Type 'help' followed by a command name for more
information on commands.

CPLEX> Logfile 'cplex.log' closed.
Logfile 'C:\Users\llavin\Desktop\test826\logs\tmpiws_nr5a.cplex.log' open.
CPLEX> New value for parallel optimization mode: -1
CPLEX> New value for emphasis for MIP optimization: 1
CPLEX> New value for mixed integer optimality gap tolerance: 0.01
CPLEX> New value for integrality tolerance: 1e-12
CPLEX> New value for deterministic time limit in ticks: 75000
CPLEX> Problem 'C:\Users\llavin\Desktop\test826\logs\tmpwka7em7k.pyomo.lp' read.
Read time = 0.23 sec. (13.91 ticks)
CPLEX> MIP start file 'C:\Users\llavin\Desktop\test826\logs\tmp1ggrx18u.cplex.mst' read.
CPLEX> Problem name         : C:\Users\llavin\Desktop\test826\logs\tmpwka7em7k.pyomo.lp
Objective sense      : Maximize
Variables            :   54529  [Nneg: 1,  Box: 22724,  Free: 4464,
                                 Binary: 27340]
Objective nonzeros   :    9700
Linear constraints   :  123253  [Less: 41346,  Greater: 59096,  Equal: 22811]
  Nonzeros           :  293289
  RHS nonzeros       :   67491

Variables            : Min LB: -5000.000        Max UB: 1000000.       
Objective nonzeros   : Min   : 0.07500000       Max   : 822.4500       
Linear constraints   :
  Nonzeros           : Min   : 0.07500000       Max   : 1000000.       
  RHS nonzeros       : Min   : 0.07500000       Max   : 1000000.       
CPLEX> CPXPARAM_Parallel                                -1
CPXPARAM_Emphasis_MIP                            1
CPXPARAM_DetTimeLimit                            75000
CPXPARAM_MIP_Tolerances_MIPGap                   0.01
CPXPARAM_MIP_Tolerances_Integrality              9.9999999999999998e-13
Warning:  No solution found from 1 MIP starts.
Retaining values of one MIP start for possible repair.
Tried aggregator 4 times.
MIP Presolve eliminated 88724 rows and 19700 columns.
MIP Presolve added 3395 rows and 0 columns.
MIP Presolve modified 24918 coefficients.
Aggregator did 12998 substitutions.
Reduced MIP has 24926 rows, 21275 columns, and 71132 nonzeros.
Reduced MIP has 8399 binaries, 0 generals, 0 SOSs, and 0 indicators.
Presolve time = 0.34 sec. (194.10 ticks)
Probing fixed 370 vars, tightened 4265 bounds.
Probing time = 0.08 sec. (18.94 ticks)
Tried aggregator 2 times.
MIP Presolve eliminated 834 rows and 742 columns.
MIP Presolve modified 3038 coefficients.
Aggregator did 36 substitutions.
Reduced MIP has 24056 rows, 20497 columns, and 68614 nonzeros.
Reduced MIP has 8028 binaries, 0 generals, 0 SOSs, and 0 indicators.
Presolve time = 0.11 sec. (87.73 ticks)
Probing fixed 0 vars, tightened 318 bounds.
Probing time = 0.14 sec. (22.82 ticks)
Clique table members: 44699.
MIP emphasis: integer feasibility.
MIP search method: dynamic search.
Parallel mode: opportunistic, using up to 32 threads.
Root relaxation solution time = 0.44 sec. (659.82 ticks)

        Nodes                                         Cuts/
   Node  Left     Objective  IInf  Best Integer    Best Bound    ItCnt     Gap

      0     0     7965.0732   169                   7965.0732     5475         
      0     0     7965.0732     5                    Cuts: 21     5480         
      0     0     7965.0732     4                     Cuts: 3     5481         
*     0+    0                         7945.7799     7965.0732             0.24%

Clique cuts applied:  1
Cover cuts applied:  1
Implied bound cuts applied:  2
Flow cuts applied:  6
Mixed integer rounding cuts applied:  4
Gomory fractional cuts applied:  2

Root node processing (before b&c):
  Real time             =    2.38 sec. (1669.08 ticks)
Parallel b&c, 32 threads:
  Real time             =    0.00 sec. (0.00 ticks)
  Sync time (average)   =    0.00 sec.
  Wait time (average)   =    0.00 sec.
                          ------------
Total (root+branch&cut) =    2.38 sec. (1669.08 ticks)

Solution pool: 1 solution saved.

MIP - Integer optimal, tolerance (0.01/1e-06):  Objective =  7.9457798625e+03
Current MIP best bound =  7.9650731909e+03 (gap = 19.2933, 0.24%)
Solution time =    2.39 sec.  Iterations = 5483  Nodes = 0 (1)
Deterministic time = 1669.24 ticks  (698.13 ticks/sec)

CPLEX> Incumbent solution written to file 'C:\Users\llavin\Desktop\test826\logs\tmpy94gv6wj.cplex.sol'.
CPLEX> Exporting results... 
